NAME 
ROWS
 N  OBJ
 L  R0      
 L  R1      
 E  R2      
 E  R3      
 E  R4      
 E  R5      
 E  R6      
 E  R7      
 E  R8      
 E  R9      
 E  R10     
 E  R11     
COLUMNS
    MARKER    'MARKER'                 'INTORG'
    I0(5)     OBJ       41
    I0(5)     R0        175
    I0(5)     R1        191
    I0(5)     R5        1
    I0(5)     R7        4
    I0(5)     R11       1
    I1(5)     OBJ       86
    I1(5)     R0        142
    I1(5)     R1        -119
    I1(5)     R3        9
    I1(5)     R6        -1
    I1(5)     R11       1
    I2(8)     OBJ       -16
    I2(8)     R0        -173
    I2(8)     R1        107
    I2(8)     R2        4
    I2(8)     R3        5
    I2(8)     R5        5
    I2(8)     R6        2
    I2(8)     R7        2
    I2(8)     R11       1
    I3(6)     OBJ       180
    I3(6)     R0        -104
    I3(6)     R1        -176
    I3(6)     R4        7
    I3(6)     R6        13
    I3(6)     R7        18
    I3(6)     R11       1
    I4(4)     OBJ       -74
    I4(4)     R0        -187
    I4(4)     R1        -112
    I4(4)     R6        5
    I4(4)     R11       1
    I5(7)     OBJ       149
    I5(7)     R0        96
    I5(7)     R1        -48
    I5(7)     R3        12
    I5(7)     R4        5
    I5(7)     R5        6
    I5(7)     R7        6
    I5(7)     R11       1
    MARKER    'MARKER'                 'INTEND'
    C6(10)    OBJ       -1
    C6(10)    R0        1
    C6(10)    R1        8
    C6(10)    R2        13
    C6(10)    R3        15
    C6(10)    R4        -1
    C6(10)    R5        11
    C6(10)    R6        15
    C6(10)    R7        1
    C6(10)    R8        10
    C6(10)    R9        4
    C7(7)     OBJ       -4
    C7(7)     R0        8
    C7(7)     R1        -7
    C7(7)     R3        5
    C7(7)     R5        4
    C7(7)     R7        13
    C7(7)     R8        11
    C7(7)     R10       -1
    C8(10)    OBJ       6
    C8(10)    R0        -9
    C8(10)    R1        -7
    C8(10)    R2        12
    C8(10)    R4        1
    C8(10)    R5        16
    C8(10)    R6        6
    C8(10)    R7        17
    C8(10)    R8        15
    C8(10)    R9        19
    C8(10)    R10       5
    C9(8)     OBJ       9
    C9(8)     R0        -7
    C9(8)     R1        -4
    C9(8)     R2        10
    C9(8)     R4        14
    C9(8)     R6        6
    C9(8)     R8        1
    C9(8)     R9        17
    C9(8)     R10       2
    C10(1)    R2        1
    C11(1)    R3        1
    C12(1)    R4        1
    C13(1)    R5        1
    C14(1)    R6        1
    C15(1)    R7        1
    C16(1)    R8        1
    C17(1)    R9        1
    C18(1)    R10       1
    C19(1)    R11       1
RHS
    RHS1      R0        -3.1468907563025209e+02
    RHS1      R1        -3.5697478991596633e+01
    RHS1      R2        63
    RHS1      R3        73
    RHS1      R4        51
    RHS1      R5        87
    RHS1      R6        57
    RHS1      R7        75
    RHS1      R8        71
    RHS1      R9        81
    RHS1      R10       71
    RHS1      R11       2
BOUNDS
 UP BND1      I0(5)     1
 UP BND1      I1(5)     1
 UP BND1      I2(8)     1
 UP BND1      I3(6)     1
 UP BND1      I4(4)     1
 UP BND1      I5(7)     1
ENDATA
